%NPROCSHARED=1
%MEM=1000MB
%CHK=test.1.chk
%OLDCHK=test.chk
#P BP86/STO-3G guess=read nosymm gfinput gfprint force charge guess=huckel punch=derivatives iop(3/33=1,6/7=3) prop(field,read) pop=esp

QM part of step 1

1 1
N     47.816533    85.620871    31.139119
H     47.681418    84.766731    30.370146
H     47.114219    86.492229    30.874518
H     48.912359    86.015597    31.042467
C     47.614691    85.332333    32.533506
H     48.363395    84.211948    32.728720
H     46.387977    84.734335    32.524093
H     47.705453    85.948457    33.182908

   46.948174    86.392024    34.331145    -0.286100
   48.863064    86.970538    33.312336    -0.096000
   49.526414    86.800097    32.628760     0.268100
   49.127292    88.171465    34.103278    -0.272200
   49.296102    87.752057    35.236496     0.130400
   50.292131    88.863013    33.713992     0.112300
   50.592398    89.737519    34.477406     0.081300
   51.249419    88.200548    33.742218     0.081300
   50.200861    89.392429    32.437164    -0.651400
   50.969379    89.915826    32.218004     0.447400
   48.046468    88.870388    34.725499     0.811300
   47.536386    89.851462    32.850823    -0.813200
   47.290000    89.260000    35.250000    -0.813200
   46.546343    86.465870    34.784381    -0.274815
   47.350005    86.318178    33.877909     0.274815
   49.408938    87.324679    33.253967    -0.283231
   48.317191    86.616397    33.370704     0.283231

   46.948174    86.392024    34.331145
   48.863064    86.970538    33.312336
   49.526414    86.800097    32.628760
   49.127292    88.171465    34.103278
   49.296102    87.752057    35.236496
   50.292131    88.863013    33.713992
   50.592398    89.737519    34.477406
   51.249419    88.200548    33.742218
   50.200861    89.392429    32.437164
   50.969379    89.915826    32.218004
   48.046468    88.870388    34.725499
   47.536386    89.851462    32.850823
   47.290000    89.260000    35.250000
   46.546343    86.465870    34.784381
   47.350005    86.318178    33.877909
   49.408938    87.324679    33.253967
   48.317191    86.616397    33.370704
