%NPROCSHARED=1
%MEM=1000MB
%CHK=test.3.chk
%OLDCHK=test.2.chk
#P BP86/STO-3G guess=read nosymm gfinput gfprint force charge guess=huckel punch=derivatives iop(3/33=1,6/7=3) prop(field,read) pop=esp

QM part of step 3

1 1
N     47.512595    85.778686    30.912270
H     47.679283    84.454129    30.046467
H     46.932353    86.940406    30.792513
H     49.537447    86.326794    30.894604
C     47.526239    84.870457    32.645842
H     48.841586    83.698541    32.979537
H     45.734416    84.605521    32.630241
H     47.698489    86.016660    33.256192

   46.906272    86.085157    34.099022    -0.286100
   48.843730    86.824031    33.178072    -0.096000
   49.613695    86.909392    32.623889     0.268100
   49.115441    87.913662    34.079131    -0.272200
   49.355768    87.701550    35.649308     0.130400
   50.154336    88.813386    33.569749     0.112300
   50.643865    90.146658    34.844148     0.081300
   51.626959    87.876365    33.760088     0.081300
   50.346446    89.185603    32.011644    -0.651400
   51.081960    90.090138    32.217565     0.447400
   48.082583    89.166901    34.294143     0.811300
   47.188120    90.149346    31.940619    -0.813200
   47.290000    89.260000    35.250000    -0.813200
   46.546865    85.921183    34.348075    -0.241468
   47.265680    86.249132    33.849968     0.241468
   49.296289    86.969485    33.041821    -0.248617
   48.391172    86.678578    33.314322     0.248617

   46.906272    86.085157    34.099022
   48.843730    86.824031    33.178072
   49.613695    86.909392    32.623889
   49.115441    87.913662    34.079131
   49.355768    87.701550    35.649308
   50.154336    88.813386    33.569749
   50.643865    90.146658    34.844148
   51.626959    87.876365    33.760088
   50.346446    89.185603    32.011644
   51.081960    90.090138    32.217565
   48.082583    89.166901    34.294143
   47.188120    90.149346    31.940619
   47.290000    89.260000    35.250000
   46.546865    85.921183    34.348075
   47.265680    86.249132    33.849968
   49.296289    86.969485    33.041821
   48.391172    86.678578    33.314322
