%NPROCSHARED=1
%MEM=1000MB
%CHK=test.2.chk
%OLDCHK=test.1.chk
#P BP86/STO-3G guess=read nosymm gfinput gfprint force charge guess=huckel punch=derivatives iop(3/33=1,6/7=3) prop(field,read) pop=esp

QM part of step 2

1 1
N     47.386816    85.673214    31.091081
H     47.689031    84.614994    30.224733
H     47.115403    86.587266    30.868118
H     49.398006    86.213262    30.985549
C     47.655512    85.345085    32.579098
H     48.593094    83.945894    32.841101
H     46.066708    84.655311    32.543853
H     47.725115    86.049771    33.209840

   46.939383    86.285206    34.247700    -0.286100
   48.855978    86.900358    33.259489    -0.096000
   49.547184    86.839231    32.637560     0.268100
   49.119573    88.131767    34.010120    -0.272200
   49.314562    87.725541    35.412627     0.130400
   50.170089    88.819811    33.635309     0.112300
   50.626376    89.912425    34.635012     0.081300
   51.410911    88.069533    33.747573     0.081300
   50.246090    89.329341    32.299943    -0.651400
   51.009346    89.972006    32.215827     0.447400
   48.144993    88.746665    35.056159     0.811300
   47.325123    90.142770    32.215810    -0.813200
   47.290000    89.260000    35.250000    -0.813200
   46.564566    86.262938    34.608744    -0.255118
   47.314201    86.307474    33.886657     0.255118
   49.340220    87.149238    33.169758    -0.262312
   48.371735    86.651479    33.349219     0.262312

   46.939383    86.285206    34.247700
   48.855978    86.900358    33.259489
   49.547184    86.839231    32.637560
   49.119573    88.131767    34.010120
   49.314562    87.725541    35.412627
   50.170089    88.819811    33.635309
   50.626376    89.912425    34.635012
   51.410911    88.069533    33.747573
   50.246090    89.329341    32.299943
   51.009346    89.972006    32.215827
   48.144993    88.746665    35.056159
   47.325123    90.142770    32.215810
   47.290000    89.260000    35.250000
   46.564566    86.262938    34.608744
   47.314201    86.307474    33.886657
   49.340220    87.149238    33.169758
   48.371735    86.651479    33.349219
