%NPROCSHARED=1
%MEM=1000MB
%CHK=test.1.chk
%OLDCHK=test.chk
#P BP86/STO-3G guess=read nosymm gfinput gfprint force charge guess=huckel punch=derivatives iop(3/33=1,6/7=3) prop(field,read) pop=esp

QM part of step 1

1 1
N     47.546249    85.587527    31.127183
H     47.701949    84.788273    30.389174
H     47.194303    86.422670    30.896536
H     49.121212    86.089481    31.030464
C     47.648633    85.338370    32.520695
H     48.360701    84.209907    32.737528
H     46.387409    84.738443    32.509535
H     47.717694    85.984285    33.171112

   46.948275    86.391813    34.330412    -0.286100
   48.863189    86.971086    33.312989    -0.096000
   49.526252    86.799862    32.628696     0.268100
   49.127328    88.171573    34.103348    -0.272200
   49.296119    87.752063    35.236506     0.130400
   50.292134    88.863011    33.713986     0.112300
   50.592399    89.737520    34.477408     0.081300
   51.249421    88.200540    33.742214     0.081300
   50.200859    89.392462    32.437177    -0.651400
   50.969378    89.915805    32.217997     0.447400
   48.046532    88.870473    34.725530     0.811300
   47.536329    89.851495    32.850823    -0.813200
   47.290000    89.260000    35.250000    -0.813200
   46.546355    86.466132    34.782818    -0.274714
   47.350194    86.317495    33.878005     0.274714
   49.409446    87.326247    33.254315    -0.283400
   48.316933    86.615925    33.371662     0.283400

   46.948275    86.391813    34.330412
   48.863189    86.971086    33.312989
   49.526252    86.799862    32.628696
   49.127328    88.171573    34.103348
   49.296119    87.752063    35.236506
   50.292134    88.863011    33.713986
   50.592399    89.737520    34.477408
   51.249421    88.200540    33.742214
   50.200859    89.392462    32.437177
   50.969378    89.915805    32.217997
   48.046532    88.870473    34.725530
   47.536329    89.851495    32.850823
   47.290000    89.260000    35.250000
   46.546355    86.466132    34.782818
   47.350194    86.317495    33.878005
   49.409446    87.326247    33.254315
   48.316933    86.615925    33.371662
